<?xml version = "1.0" standalone="yes"?>
<!-- This file has been generated by DOcplex version 2.23.222  -->
<CPLEXSolution version="1.0">
 <header
   problemName="CVRP"
   objectiveValue="16574.7"
  />
 <variables>
  <variable name="x_0_2" index="1" value="1.00000"/>
  <variable name="x_0_3" index="2" value="1.00000"/>
  <variable name="x_0_5" index="4" value="1.00000"/>
  <variable name="x_0_6" index="5" value="1.00000"/>
  <variable name="x_0_8" index="7" value="1.00000"/>
  <variable name="x_0_11" index="10" value="1.00000"/>
  <variable name="x_0_12" index="11" value="1.00000"/>
  <variable name="x_0_14" index="13" value="1.00000"/>
  <variable name="x_0_15" index="14" value="1.00000"/>
  <variable name="x_0_16" index="15" value="1.00000"/>
  <variable name="x_0_18" index="17" value="1.00000"/>
  <variable name="x_0_19" index="18" value="1.00000"/>
  <variable name="x_0_24" index="23" value="1.00000"/>
  <variable name="x_0_27" index="26" value="1.00000"/>
  <variable name="x_1_0" index="27" value="1.00000"/>
  <variable name="x_2_4" index="57" value="1.00000"/>
  <variable name="x_3_1" index="82" value="1.00000"/>
  <variable name="x_4_0" index="108" value="1.00000"/>
  <variable name="x_5_22" index="156" value="1.00000"/>
  <variable name="x_6_0" index="162" value="1.00000"/>
  <variable name="x_7_0" index="189" value="1.00000"/>
  <variable name="x_8_10" index="225" value="1.00000"/>
  <variable name="x_9_0" index="243" value="1.00000"/>
  <variable name="x_10_0" index="270" value="1.00000"/>
  <variable name="x_11_9" index="306" value="1.00000"/>
  <variable name="x_12_17" index="340" value="1.00000"/>
  <variable name="x_13_7" index="358" value="1.00000"/>
  <variable name="x_14_0" index="378" value="1.00000"/>
  <variable name="x_15_21" index="425" value="1.00000"/>
  <variable name="x_16_0" index="432" value="1.00000"/>
  <variable name="x_17_0" index="459" value="1.00000"/>
  <variable name="x_18_23" index="508" value="1.00000"/>
  <variable name="x_19_26" index="538" value="1.00000"/>
  <variable name="x_20_0" index="540" value="1.00000"/>
  <variable name="x_21_0" index="567" value="1.00000"/>
  <variable name="x_22_20" index="614" value="1.00000"/>
  <variable name="x_23_0" index="621" value="1.00000"/>
  <variable name="x_24_25" index="672" value="1.00000"/>
  <variable name="x_25_0" index="675" value="1.00000"/>
  <variable name="x_26_13" index="715" value="1.00000"/>
  <variable name="x_27_0" index="729" value="1.00000"/>
  <variable name="u_1" index="756" value="20.00000"/>
  <variable name="u_2" index="757" value="1.00000"/>
  <variable name="u_3" index="758" value="8.00000"/>
  <variable name="u_4" index="759" value="20.00000"/>
  <variable name="u_5" index="760" value="8.00000"/>
  <variable name="u_6" index="761" value="20.00000"/>
  <variable name="u_7" index="762" value="20.00000"/>
  <variable name="u_8" index="763" value="4.00000"/>
  <variable name="u_9" index="764" value="20.00000"/>
  <variable name="u_10" index="765" value="20.00000"/>
  <variable name="u_11" index="766" value="7.00000"/>
  <variable name="u_12" index="767" value="9.00000"/>
  <variable name="u_13" index="768" value="19.00000"/>
  <variable name="u_14" index="769" value="20.00000"/>
  <variable name="u_15" index="770" value="2.00000"/>
  <variable name="u_16" index="771" value="20.00000"/>
  <variable name="u_17" index="772" value="20.00000"/>
  <variable name="u_18" index="773" value="12.00000"/>
  <variable name="u_19" index="774" value="1.00000"/>
  <variable name="u_20" index="775" value="20.00000"/>
  <variable name="u_21" index="776" value="15.00000"/>
  <variable name="u_22" index="777" value="9.00000"/>
  <variable name="u_23" index="778" value="20.00000"/>
  <variable name="u_24" index="779" value="3.00000"/>
  <variable name="u_25" index="780" value="20.00000"/>
  <variable name="u_26" index="781" value="13.00000"/>
  <variable name="u_27" index="782" value="20.00000"/>
 </variables>
</CPLEXSolution>
